
Gurobi 10.0.1 (linux64) logging started Tue Sep 12 19:23:07 2023

Set parameter LogFile to value "./log/scr12.log"
Set parameter TimeLimit to value 180
Gurobi Optimizer version 10.0.1 build v10.0.1rc0 (linux64)

CPU model: 12th Gen Intel(R) Core(TM) i5-12600KF, instruction set [SSE2|AVX|AVX2]
Thread count: 8 physical cores, 16 logical processors, using up to 16 threads

Optimize a model with 24 rows, 144 columns and 288 nonzeros
Model fingerprint: 0xee9c657a
Model has 3696 quadratic objective terms
Variable types: 0 continuous, 144 integer (144 binary)
Coefficient statistics:
  Matrix range     [1e+00, 1e+00]
  Objective range  [0e+00, 0e+00]
  QObjective range [1e+02, 5e+04]
  Bounds range     [1e+00, 1e+00]
  RHS range        [1e+00, 1e+00]
Found heuristic solution: objective 44158.000000
Presolve time: 0.04s
Presolved: 24 rows, 144 columns, 288 nonzeros
Presolved model has 3840 quadratic objective terms
Variable types: 0 continuous, 144 integer (144 binary)

Root relaxation: objective -4.288811e+05, 165 iterations, 0.00 seconds (0.01 work units)

    Nodes    |    Current Node    |     Objective Bounds      |     Work
 Expl Unexpl |  Obj  Depth IntInf | Incumbent    BestBd   Gap | It/Node Time

     0     0    0.00000    0  141 44158.0000    0.00000   100%     -    0s
H    0     0                    41018.000000    0.00000   100%     -    0s
     0     0    0.00000    0  141 41018.0000    0.00000   100%     -    0s
H    0     0                    40638.000000    0.00000   100%     -    0s
     0     2    0.00000    0  141 40638.0000    0.00000   100%     -    0s
H   32    40                    39760.000000    0.00000   100%   6.2    0s
H   38    40                    38428.000000    0.00000   100%   5.5    0s
H   64    80                    37550.000000    0.00000   100%   4.1    0s
H   66    80                    37328.000000    0.00000   100%   4.0    0s
H   68    80                    36804.000000    0.00000   100%   4.0    0s
H   70    80                    35876.000000    0.00000   100%   3.9    0s
H  299   258                    35764.000000 5174.00000  85.5%  17.4    0s
H  314   248                    33568.000000 5174.00000  84.6%  17.1    0s
H  389   297                    33476.000000 5174.00000  84.5%  16.5    0s
H  417   284                    33456.000000 5174.00000  84.5%  16.2    0s
H  522   378                    32696.000000 5174.00000  84.2%  14.8    0s
*14495  4087              57    32602.000000 24916.4407  23.6%   8.9    0s
*19021  4309              63    32502.000000 25690.2325  21.0%   8.7    1s
H19694  4277                    32236.000000 25827.1430  19.9%   8.7    1s
*25531  3495              56    32144.000000 27420.4419  14.7%   8.7    1s
*25563  3423              58    31876.000000 27425.9085  14.0%   8.8    1s
*25565  3255              58    31410.000000 27425.9085  12.7%   8.8    1s

Cutting planes:
  MIR: 1
  RLT: 1

Explored 30182 nodes (257288 simplex iterations) in 1.24 seconds (1.47 work units)
Thread count was 16 (of 16 available processors)

Solution count 10: 31410 31876 32144 ... 33568

Optimal solution found (tolerance 1.00e-04)
Best objective 3.141000000000e+04, best bound 3.141000000000e+04, gap 0.0000%
